\ LP format - for model browsing. Use MPS format to capture full model detail.
Minimize
  0.0389105058365759 C2 + 0.0389105058365759 C3 + 0.0389105058365759 C4
   + 0.0389105058365759 C5 + 0.0389105058365759 C6 + 0.0389105058365759 C7
   + 0.0389105058365759 C8 + 0.0389105058365759 C9 + 0.0389105058365759 C10
   + 0.0389105058365759 C11 + 0.0389105058365759 C12
   + 0.0389105058365759 C13 + 0.0389105058365759 C14
   + 0.0389105058365759 C15 + 0.0389105058365759 C16
   + 0.0389105058365759 C17 + 0.0389105058365759 C18
   + 0.0389105058365759 C19 + 0.0389105058365759 C20
   + 0.0389105058365759 C21 + 0.0389105058365759 C22
   + 0.0389105058365759 C23 + 0.0389105058365759 C24
   + 0.0389105058365759 C25 + 0.0389105058365759 C26
   + 0.0389105058365759 C27 + 0.0389105058365759 C28
   + 0.0389105058365759 C29 + 0.0389105058365759 C30
   + 0.0389105058365759 C31 + 0.0389105058365759 C32
   + 0.0389105058365759 C33 + 0.0389105058365759 C34
   + 0.0389105058365759 C35 + 0.0389105058365759 C36
   + 0.0389105058365759 C37 + 0.0389105058365759 C38
   + 0.3448275862068966 C39 + 0.0389105058365759 C40
   + 0.0389105058365759 C41 + 0.0389105058365759 C42
   + 0.0389105058365759 C43 + 0.0389105058365759 C44
   + 0.0389105058365759 C45 + 0.0389105058365759 C46
   + 0.0389105058365759 C47 + 0.3448275862068966 C48
   + 0.0389105058365759 C49 + 0.3448275862068966 C50
   + 0.0389105058365759 C51 + 0.3448275862068966 C52
   + 0.3448275862068966 C53 + 0.3448275862068966 C54
   + 0.0389105058365759 C55 + 0.3448275862068966 C56
   + 0.0389105058365759 C57 + 0.0389105058365759 C58
   + 0.0389105058365759 C59 + 0.3448275862068966 C60
   + 0.3448275862068966 C61 + 0.0389105058365759 C62
   + 0.0389105058365759 C63 + 0.0389105058365759 C64
   + 0.0389105058365759 C65 + 0.0389105058365759 C66
   + 0.0389105058365759 C67 + 0.3448275862068966 C68
   + 0.0389105058365759 C69 + 0.0389105058365759 C70
   + 0.0389105058365759 C71 + 0.0389105058365759 C72
   + 0.3448275862068966 C73 + 0.0389105058365759 C74
   + 0.0389105058365759 C75 + 0.0389105058365759 C76
   + 0.0389105058365759 C77 + 0.0389105058365759 C78
   + 0.0389105058365759 C79 + 0.0389105058365759 C80
   + 0.0389105058365759 C81 + 0.0389105058365759 C82
   + 0.0389105058365759 C83 + 0.3448275862068966 C84
   + 0.0389105058365759 C85 + 0.0389105058365759 C86
   + 0.0389105058365759 C87 + 0.0389105058365759 C88
   + 0.0389105058365759 C89 + 0.0389105058365759 C90
   + 0.0389105058365759 C91 + 0.0389105058365759 C92
   + 0.0389105058365759 C93 + 0.0389105058365759 C94
   + 0.0389105058365759 C95 + 0.0389105058365759 C96
   + 0.0389105058365759 C97 + 0.0389105058365759 C98
   + 0.3448275862068966 C99 + 0.0389105058365759 C100
   + 0.0389105058365759 C101 + 0.0389105058365759 C102
   + 0.0389105058365759 C103 + 0.0389105058365759 C104
   + 0.0389105058365759 C105 + 0.0389105058365759 C106
   + 0.0389105058365759 C107 + 0.0389105058365759 C108
   + 0.0389105058365759 C109 + 0.3448275862068966 C110
   + 0.0389105058365759 C111 + 0.0389105058365759 C112
   + 0.0389105058365759 C113 + 0.0389105058365759 C114
   + 0.0389105058365759 C115 + 0.0389105058365759 C116
   + 0.0389105058365759 C117 + 0.0389105058365759 C118
   + 0.0389105058365759 C119 + 0.0389105058365759 C120
   + 0.0389105058365759 C121 + 0.0389105058365759 C122
   + 0.0389105058365759 C123 + 0.0389105058365759 C124
   + 0.0389105058365759 C125 + 0.3448275862068966 C126
   + 0.0389105058365759 C127 + 0.3448275862068966 C128
   + 0.0389105058365759 C129 + 0.0389105058365759 C130
   + 0.0389105058365759 C131 + 0.0389105058365759 C132
   + 0.0389105058365759 C133 + 0.0389105058365759 C134
   + 0.0389105058365759 C135 + 0.0389105058365759 C136
   + 0.0389105058365759 C137 + 0.0389105058365759 C138
   + 0.0389105058365759 C139 + 0.0389105058365759 C140
   + 0.0389105058365759 C141 + 0.0389105058365759 C142
   + 0.0389105058365759 C143 + 0.0389105058365759 C144
   + 0.0389105058365759 C145 + 0.0389105058365759 C146
   + 0.0389105058365759 C147 + 0.0389105058365759 C148
   + 0.0389105058365759 C149 + 0.3448275862068966 C150
   + 0.0389105058365759 C151 + 0.3448275862068966 C152
   + 0.0389105058365759 C153 + 0.3448275862068966 C154
   + 0.0389105058365759 C155 + 0.0389105058365759 C156
   + 0.0389105058365759 C157 + 0.0389105058365759 C158
   + 0.0389105058365759 C159 + 0.0389105058365759 C160
   + 0.0389105058365759 C161 + 0.0389105058365759 C162
   + 0.0389105058365759 C163 + 0.0389105058365759 C164
   + 0.0389105058365759 C165 + 0.0389105058365759 C166
   + 0.0389105058365759 C167 + 0.0389105058365759 C168
   + 0.0389105058365759 C169 + 0.0389105058365759 C170
   + 0.0389105058365759 C171 + 0.0389105058365759 C172
   + 0.0389105058365759 C173 + 0.0389105058365759 C174
   + 0.0389105058365759 C175 + 0.0389105058365759 C176
   + 0.0389105058365759 C177 + 0.3448275862068966 C178
   + 0.0389105058365759 C179 + 0.3448275862068966 C180
   + 0.0389105058365759 C181 + 0.3448275862068966 C182
   + 0.3448275862068966 C183 + 0.0389105058365759 C184
   + 0.0389105058365759 C185 + 0.0389105058365759 C186
   + 0.0389105058365759 C187 + 0.0389105058365759 C188
   + 0.0389105058365759 C189 + 0.0389105058365759 C190
   + 0.0389105058365759 C191 + 0.0389105058365759 C192
   + 0.0389105058365759 C193 + 0.0389105058365759 C194
   + 0.0389105058365759 C195 + 0.0389105058365759 C196
   + 0.0389105058365759 C197 + 0.0389105058365759 C198
   + 0.0389105058365759 C199 + 0.0389105058365759 C200
   + 0.0389105058365759 C201 + 0.0389105058365759 C202
   + 0.0389105058365759 C203 + 0.0389105058365759 C204
   + 0.0389105058365759 C205 + 0.0389105058365759 C206
   + 0.0389105058365759 C207 + 0.3448275862068966 C208
   + 0.3448275862068966 C209 + 0.3448275862068966 C210
   + 0.0389105058365759 C211 + 0.0389105058365759 C212
   + 0.0389105058365759 C213 + 0.0389105058365759 C214
   + 0.0389105058365759 C215 + 0.0389105058365759 C216
   + 0.0389105058365759 C217 + 0.0389105058365759 C218
   + 0.0389105058365759 C219 + 0.0389105058365759 C220
   + 0.0389105058365759 C221 + 0.0389105058365759 C222
   + 0.0389105058365759 C223 + 0.0389105058365759 C224
   + 0.0389105058365759 C225 + 0.0389105058365759 C226
   + 0.0389105058365759 C227 + 0.0389105058365759 C228
   + 0.0389105058365759 C229 + 0.0389105058365759 C230
   + 0.3448275862068966 C231 + 0.0389105058365759 C232
   + 0.0389105058365759 C233 + 0.0389105058365759 C234
   + 0.0389105058365759 C235 + 0.0389105058365759 C236
   + 0.0389105058365759 C237 + 0.0389105058365759 C238
   + 0.0389105058365759 C239 + 0.0389105058365759 C240
   + 0.0389105058365759 C241 + 0.0389105058365759 C242
   + 0.0389105058365759 C243 + 0.0389105058365759 C244
   + 0.0389105058365759 C245 + 0.0389105058365759 C246
   + 0.0389105058365759 C247 + 0.0389105058365759 C248
   + 0.0389105058365759 C249 + 0.0389105058365759 C250
   + 0.0389105058365759 C251 + 0.0389105058365759 C252
   + 0.0389105058365759 C253 + 0.0389105058365759 C254
   + 0.3448275862068966 C255 + 0.0389105058365759 C256
   + 0.0389105058365759 C257 + 0.0389105058365759 C258
   + 0.0389105058365759 C259 + 0.0389105058365759 C260
   + 0.0389105058365759 C261 + 0.0389105058365759 C262
   + 0.0389105058365759 C263 + 0.0389105058365759 C264
   + 0.0389105058365759 C265 + 0.0389105058365759 C266
   + 0.0389105058365759 C267 + 0.0389105058365759 C268
   + 0.0389105058365759 C269 + 0.0389105058365759 C270
   + 0.0389105058365759 C271 + 0.0389105058365759 C272
   + 0.0389105058365759 C273 + 0.0389105058365759 C274
   + 0.0389105058365759 C275 + 0.0389105058365759 C276
   + 0.3448275862068966 C277 + 0.0389105058365759 C278
   + 0.0389105058365759 C279 + 0.0389105058365759 C280
   + 0.0389105058365759 C281 + 0.0389105058365759 C282
   + 0.0389105058365759 C283 + 0.0389105058365759 C284
   + 0.0389105058365759 C285 + 0.0389105058365759 C286
   + 0.0389105058365759 C287 + 0 C288 + 0 C289 + 0 C290 + 0 C291 + 0 C292
   + 0 C293 + 0 C294 + 0 C295 + 0 C296 + 0 C297 + 0 C298 + 0 C299 + 0 C300
   + 0 C301 + 0 C302 + 0 C303 + 0 C304 + 0 C305 + 0 C306 + 0 C307 + 0 C308
   + 0 C309 + 0 C310 + 0 C311 + 0 C312 + 0 C313 + 0 C314 + 0 C315 + 0 C316
   + 0 C317 + 0 C318 + 0 C319 + 0 C320 + 0 C321 + 0 C322 + 0 C323 + 0 C324
   + 0 C325 + 0 C326 + 0 C327 + 0 C328 + 0 C329 + 0 C330 + 0 C331 + 0 C332
   + 0 C333 + 0 C334 + 0 C335 + 0 C336 + 0 C337 + 0 C338 + 0 C339 + 0 C340
   + 0 C341 + 0 C342 + 0 C343 + 0 C344 + 0 C345 + 0 C346 + 0 C347 + 0 C348
   + 0 C349 + 0 C350 + 0 C351 + 0 C352 + 0 C353 + 0 C354 + 0 C355 + 0 C356
   + 0 C357 + 0 C358 + 0 C359 + 0 C360 + 0 C361 + 0 C362 + 0 C363 + 0 C364
   + 0 C365 + 0 C366 + 0 C367 + 0 C368 + 0 C369 + 0 C370 + 0 C371 + 0 C372
   + 0 C373 + 0 C374 + 0 C375 + 0 C376 + 0 C377 + 0 C378 + 0 C379 + 0 C380
   + 0 C381 + 0 C382 + 0 C383 + 0 C384 + 0 C385 + 0 C386 + 0 C387 + 0 C388
   + 0 C389 + 0 C390 + 0 C391 + 0 C392 + 0 C393 + 0 C394 + 0 C395 + 0 C396
   + 0 C397 + 0 C398 + 0 C399 + 0 C400 + 0 C401 + 0 C402 + 0 C403 + 0 C404
   + 0 C405 + 0 C406 + 0 C407 + 0 C408 + 0 C409 + 0 C410 + 0 C411 + 0 C412
   + 0 C413 + 0 C414 + 0 C415 + 0 C416 + 0 C417 + 0 C418 + 0 C419 + 0 C420
   + 0 C421 + 0 C422 + 0 C423 + 0 C424 + 0 C425 + 0 C426 + 0 C427 + 0 C428
   + 0 C429 + 0 C430 + 0 C431 + 0 C432 + 0 C433 + 0 C434 + 0 C435 + 0 C436
   + 0 C437 + 0 C438 + 0 C439 + 0 C440 + 0 C441 + 0 C442 + 0 C443 + 0 C444
   + 0 C445 + 0 C446 + 0 C447 + 0 C448 + 0 C449 + 0 C450 + 0 C451 + 0 C452
   + 0 C453 + 0 C454 + 0 C455 + 0 C456 + 0 C457 + 0 C458 + 0 C459 + 0 C460
   + 0 C461 + 0 C462 + 0 C463 + 0 C464 + 0 C465 + 0 C466 + 0 C467 + 0 C468
   + 0 C469 + 0 C470 + 0 C471 + 0 C472 + 0 C473 + 0 C474 + 0 C475 + 0 C476
   + 0 C477 + 0 C478 + 0 C479 + 0 C480 + 0 C481 + 0 C482 + 0 C483 + 0 C484
   + 0 C485 + 0 C486 + 0 C487 + 0 C488 + 0 C489 + 0 C490 + 0 C491 + 0 C492
   + 0 C493 + 0 C494 + 0 C495 + 0 C496 + 0 C497 + 0 C498 + 0 C499 + 0 C500
   + 0 C501 + 0 C502 + 0 C503 + 0 C504 + 0 C505 + 0 C506 + 0 C507 + 0 C508
   + 0 C509 + 0 C510 + 0 C511 + 0 C512 + 0 C513 + 0 C514 + 0 C515 + 0 C516
   + 0 C517 + 0 C518 + 0 C519 + 0 C520 + 0 C521 + 0 C522 + 0 C523 + 0 C524
   + 0 C525 + 0 C526 + 0 C527 + 0 C528 + 0 C529 + 0 C530 + 0 C531 + 0 C532
   + 0 C533 + 0 C534 + 0 C535 + 0 C536 + 0 C537 + 0 C538 + 0 C539 + 0 C540
   + 0 C541 + 0 C542 + 0 C543 + 0 C544 + 0 C545 + 0 C546 + 0 C547 + 0 C548
   + 0 C549 + 0 C550 + 0 C551 + 0 C552 + 0 C553 + 0 C554 + 0 C555 + 0 C556
   + 0 C557 + 0 C558 + 0 C559 + 0 C560 + 0 C561 + 0 C562 + 0 C563 + 0 C564
   + 0 C565 + 0 C566 + 0 C567 + 0 C568 + 0 C569 + 0 C570 + 0 C571 + 0 C572
   + 0 C573 + 0 C574 + [ C0 ^2 ] / 2 
Subject To
 R24681514: 0.0190384833148885 C0 + C1 + C2 >= 0.01
 R24681515: 0.011965292172023 C0 + C1 + C3 >= 0.01
 R24681516: 0.0183437926386168 C0 + C1 + C4 >= 0.01
 R24681517: 0.0128020185532533 C0 + C1 + C5 >= 0.01
 R24681518: 0.0198595211140212 C0 + C1 + C6 >= 0.01
 R24681519: 0.0175166301342921 C0 + C1 + C7 >= 0.01
 R24681520: 0.0113316429220757 C0 + C1 + C8 >= 0.01
 R24681521: 0.0136571032858587 C0 + C1 + C9 >= 0.01
 R24681522: 0.0193535206487405 C0 + C1 + C10 >= 0.01
 R24681523: 0.0128598933558255 C0 + C1 + C11 >= 0.01
 R24681524: 0.0104978573702016 C0 + C1 + C12 >= 0.01
 R24681525: 0.0297686458304877 C0 + C1 + C13 >= 0.01
 R24681526: 0.011774054355941 C0 + C1 + C14 >= 0.01
 R24681527: 0.0101046826532914 C0 + C1 + C15 >= 0.01
 R24681528: 0.0278642043110957 C0 + C1 + C16 >= 0.01
 R24681529: 0.0552549393490722 C0 + C1 + C17 >= 0.01
 R24681530: 0.0251411854804868 C0 + C1 + C18 >= 0.01
 R24681531: 0.0479615002175599 C0 + C1 + C19 >= 0.01
 R24681532: 0.014400235590976 C0 + C1 + C20 >= 0.01
 R24681533: 0.0105481729850247 C0 + C1 + C21 >= 0.01
 R24681534: 0.0133833019050366 C0 + C1 + C22 >= 0.01
 R24681535: 0.0127840687228845 C0 + C1 + C23 >= 0.01
 R24681536: 0.0144396402313788 C0 + C1 + C24 >= 0.01
 R24681537: 0.010475706258413 C0 + C1 + C25 >= 0.01
 R24681538: 0.0118199371298887 C0 + C1 + C26 >= 0.01
 R24681539: 0.1395252261856695 C0 + C1 + C27 >= 0.01
 R24681540: 0.0127145158525814 C0 + C1 + C28 >= 0.01
 R24681541: 0.0124318453208819 C0 + C1 + C29 >= 0.01
 R24681542: 0.0102745922732007 C0 + C1 + C30 >= 0.01
 R24681543: 0.0154860821509535 C0 + C1 + C31 >= 0.01
 R24681544: 0.0111958009227032 C0 + C1 + C32 >= 0.01
 R24681545: 0.0592935791253337 C0 + C1 + C33 >= 0.01
 R24681546: 0.00988307919063968 C0 + C1 + C34 >= 0.01
 R24681547: 0.0222113339115601 C0 + C1 + C35 >= 0.01
 R24681548: 0.0101740059898923 C0 + C1 + C36 >= 0.01
 R24681549: 0.0187712570131978 C0 + C1 + C37 >= 0.01
 R24681550: 0.0115510144037872 C0 + C1 + C38 >= 0.01
 R24681551: - 0.00582665801277381 C0 - C1 + C39 >= 0.01
 R24681552: 0.015353196505973 C0 + C1 + C40 >= 0.01
 R24681553: 0.0208231349950593 C0 + C1 + C41 >= 0.01
 R24681554: 0.00864773680064647 C0 + C1 + C42 >= 0.01
 R24681555: 0.0156773236425155 C0 + C1 + C43 >= 0.01
 R24681556: 0.0153634916392397 C0 + C1 + C44 >= 0.01
 R24681557: 0.0130571798528063 C0 + C1 + C45 >= 0.01
 R24681558: 0.119058021368243 C0 + C1 + C46 >= 0.01
 R24681559: 0.0148259096300744 C0 + C1 + C47 >= 0.01
 R24681560: - 0.0079651327571904 C0 - C1 + C48 >= 0.01
 R24681561: 0.00845454625439781 C0 + C1 + C49 >= 0.01
 R24681562: - 0.00857498749402881 C0 - C1 + C50 >= 0.01
 R24681563: 0.017109065711119 C0 + C1 + C51 >= 0.01
 R24681564: - 0.00613478553284146 C0 - C1 + C52 >= 0.01
 R24681565: - 0.00705863342463211 C0 - C1 + C53 >= 0.01
 R24681566: - 0.00955563777539828 C0 - C1 + C54 >= 0.01
 R24681567: 0.0149912898081268 C0 + C1 + C55 >= 0.01
 R24681568: - 0.00981412885737287 C0 - C1 + C56 >= 0.01
 R24681569: 0.0246859716523879 C0 + C1 + C57 >= 0.01
 R24681570: 0.0120401453165372 C0 + C1 + C58 >= 0.01
 R24681571: 0.0329994144187512 C0 + C1 + C59 >= 0.01
 R24681572: - 0.00519632324506255 C0 - C1 + C60 >= 0.01
 R24681573: - 0.00710198856721232 C0 - C1 + C61 >= 0.01
 R24681574: 0.0143682265668604 C0 + C1 + C62 >= 0.01
 R24681575: 0.0140413336508058 C0 + C1 + C63 >= 0.01
 R24681576: 0.0152537677495085 C0 + C1 + C64 >= 0.01
 R24681577: 0.0219337542397277 C0 + C1 + C65 >= 0.01
 R24681578: 0.0179716037795947 C0 + C1 + C66 >= 0.01
 R24681579: 0.0145734722911824 C0 + C1 + C67 >= 0.01
 R24681580: - 0.00915878171623144 C0 - C1 + C68 >= 0.01
 R24681581: 0.0240931149554139 C0 + C1 + C69 >= 0.01
 R24681582: 0.0140022745067243 C0 + C1 + C70 >= 0.01
 R24681583: 0.0191151261635339 C0 + C1 + C71 >= 0.01
 R24681584: 0.0131310525644881 C0 + C1 + C72 >= 0.01
 R24681585: - 0.00795733393519679 C0 - C1 + C73 >= 0.01
 R24681586: 0.0165668612555827 C0 + C1 + C74 >= 0.01
 R24681587: 0.0295725753748056 C0 + C1 + C75 >= 0.01
 R24681588: 0.0170833624838955 C0 + C1 + C76 >= 0.01
 R24681589: 0.0155499205550505 C0 + C1 + C77 >= 0.01
 R24681590: 0.0502469498427795 C0 + C1 + C78 >= 0.01
 R24681591: 0.0155391879632407 C0 + C1 + C79 >= 0.01
 R24681592: 0.0109960530818019 C0 + C1 + C80 >= 0.01
 R24681593: 0.0128764202301796 C0 + C1 + C81 >= 0.01
 R24681594: 0.0669643247011853 C0 + C1 + C82 >= 0.01
 R24681595: 0.0701249017693608 C0 + C1 + C83 >= 0.01
 R24681596: - 0.00948128628126628 C0 - C1 + C84 >= 0.01
 R24681597: 0.0100257336083679 C0 + C1 + C85 >= 0.01
 R24681598: 0.0165128189796533 C0 + C1 + C86 >= 0.01
 R24681599: 0.0108887815497749 C0 + C1 + C87 >= 0.01
 R24681600: 0.0122838171811788 C0 + C1 + C88 >= 0.01
 R24681601: 0.0148767059545368 C0 + C1 + C89 >= 0.01
 R24681602: 0.0144118624998599 C0 + C1 + C90 >= 0.01
 R24681603: 0.0198154490015891 C0 + C1 + C91 >= 0.01
 R24681604: 0.0213589525998637 C0 + C1 + C92 >= 0.01
 R24681605: 0.035890707519753 C0 + C1 + C93 >= 0.01
 R24681606: 0.0130520863229384 C0 + C1 + C94 >= 0.01
 R24681607: 0.0210284486732027 C0 + C1 + C95 >= 0.01
 R24681608: 0.0147771969503541 C0 + C1 + C96 >= 0.01
 R24681609: 0.0181835483202561 C0 + C1 + C97 >= 0.01
 R24681610: 0.0159814873638431 C0 + C1 + C98 >= 0.01
 R24681611: - 0.00764807284977084 C0 - C1 + C99 >= 0.01
 R24681612: 0.0251171270087492 C0 + C1 + C100 >= 0.01
 R24681613: 0.0102518094850005 C0 + C1 + C101 >= 0.01
 R24681614: 0.0472357988889884 C0 + C1 + C102 >= 0.01
 R24681615: 0.0293311564580212 C0 + C1 + C103 >= 0.01
 R24681616: 0.0285578794061688 C0 + C1 + C104 >= 0.01
 R24681617: 0.0129795570801084 C0 + C1 + C105 >= 0.01
 R24681618: 0.0155575300413863 C0 + C1 + C106 >= 0.01
 R24681619: 0.0318022017572878 C0 + C1 + C107 >= 0.01
 R24681620: 0.0183400383305534 C0 + C1 + C108 >= 0.01
 R24681621: 0.0119039137743356 C0 + C1 + C109 >= 0.01
 R24681622: - 0.00654721862939437 C0 - C1 + C110 >= 0.01
 R24681623: 0.0204558313453734 C0 + C1 + C111 >= 0.01
 R24681624: 0.0183408225949151 C0 + C1 + C112 >= 0.01
 R24681625: 0.0972559445614209 C0 + C1 + C113 >= 0.01
 R24681626: 0.0131954548075711 C0 + C1 + C114 >= 0.01
 R24681627: 0.0755043225153239 C0 + C1 + C115 >= 0.01
 R24681628: 0.0230751254979401 C0 + C1 + C116 >= 0.01
 R24681629: 0.013563318267277 C0 + C1 + C117 >= 0.01
 R24681630: 0.0452945683420847 C0 + C1 + C118 >= 0.01
 R24681631: 0.0394708791370226 C0 + C1 + C119 >= 0.01
 R24681632: 0.0453271491278294 C0 + C1 + C120 >= 0.01
 R24681633: 0.0181717820092435 C0 + C1 + C121 >= 0.01
 R24681634: 0.01529812904433 C0 + C1 + C122 >= 0.01
 R24681635: 0.0627215542126738 C0 + C1 + C123 >= 0.01
 R24681636: 0.0271646568784116 C0 + C1 + C124 >= 0.01
 R24681637: 0.0285750397279196 C0 + C1 + C125 >= 0.01
 R24681638: - 0.00583000196568418 C0 - C1 + C126 >= 0.01
 R24681639: 0.0149702132373709 C0 + C1 + C127 >= 0.01
 R24681640: - 0.00985445961773731 C0 - C1 + C128 >= 0.01
 R24681641: 0.016286707184925 C0 + C1 + C129 >= 0.01
 R24681642: 0.0108562419927701 C0 + C1 + C130 >= 0.01
 R24681643: 0.0128768498448318 C0 + C1 + C131 >= 0.01
 R24681644: 0.0100436308639877 C0 + C1 + C132 >= 0.01
 R24681645: 0.011735597519597 C0 + C1 + C133 >= 0.01
 R24681646: 0.0127563209018583 C0 + C1 + C134 >= 0.01
 R24681647: 0.0210465904913937 C0 + C1 + C135 >= 0.01
 R24681648: 0.0156911380291237 C0 + C1 + C136 >= 0.01
 R24681649: 0.0198066788841192 C0 + C1 + C137 >= 0.01
 R24681650: 0.0240911560306286 C0 + C1 + C138 >= 0.01
 R24681651: 0.0149310593347699 C0 + C1 + C139 >= 0.01
 R24681652: 0.0163516021846113 C0 + C1 + C140 >= 0.01
 R24681653: 0.0126430674779135 C0 + C1 + C141 >= 0.01
 R24681654: 0.0452590925364151 C0 + C1 + C142 >= 0.01
 R24681655: 0.013044228555631 C0 + C1 + C143 >= 0.01
 R24681656: 0.0119253410605949 C0 + C1 + C144 >= 0.01
 R24681657: 0.0142275247465071 C0 + C1 + C145 >= 0.01
 R24681658: 0.0142906932921871 C0 + C1 + C146 >= 0.01
 R24681659: 0.00576317415776959 C0 + C1 + C147 >= 0.01
 R24681660: 0.0100615971243475 C0 + C1 + C148 >= 0.01
 R24681661: 0.065558374375118 C0 + C1 + C149 >= 0.01
 R24681662: - 0.00691896726419682 C0 - C1 + C150 >= 0.01
 R24681663: 0.026383422501282 C0 + C1 + C151 >= 0.01
 R24681664: - 0.00624823402147466 C0 - C1 + C152 >= 0.01
 R24681665: 0.0249188448784938 C0 + C1 + C153 >= 0.01
 R24681666: - 0.00854591947028215 C0 - C1 + C154 >= 0.01
 R24681667: 0.00757988262956096 C0 + C1 + C155 >= 0.01
 R24681668: 0.0787443602516795 C0 + C1 + C156 >= 0.01
 R24681669: 0.0204064596465214 C0 + C1 + C157 >= 0.01
 R24681670: 0.0401348100120697 C0 + C1 + C158 >= 0.01
 R24681671: 0.0187188868459314 C0 + C1 + C159 >= 0.01
 R24681672: 0.0118832970098931 C0 + C1 + C160 >= 0.01
 R24681673: 0.0106712474948418 C0 + C1 + C161 >= 0.01
 R24681674: 0.0114337011767748 C0 + C1 + C162 >= 0.01
 R24681675: 0.0117209807273431 C0 + C1 + C163 >= 0.01
 R24681676: 0.0101226360381239 C0 + C1 + C164 >= 0.01
 R24681677: 0.0187880513655444 C0 + C1 + C165 >= 0.01
 R24681678: 0.0307042373528062 C0 + C1 + C166 >= 0.01
 R24681679: 0.0353779013214884 C0 + C1 + C167 >= 0.01
 R24681680: 0.0699858948635373 C0 + C1 + C168 >= 0.01
 R24681681: 0.0359681689851268 C0 + C1 + C169 >= 0.01
 R24681682: 0.0125125407007208 C0 + C1 + C170 >= 0.01
 R24681683: 0.0111353624716628 C0 + C1 + C171 >= 0.01
 R24681684: 0.0299951329435309 C0 + C1 + C172 >= 0.01
 R24681685: 0.0148339676070117 C0 + C1 + C173 >= 0.01
 R24681686: 0.0175430534789744 C0 + C1 + C174 >= 0.01
 R24681687: 0.0125933128732944 C0 + C1 + C175 >= 0.01
 R24681688: 0.0879995962123347 C0 + C1 + C176 >= 0.01
 R24681689: 0.051932057840124 C0 + C1 + C177 >= 0.01
 R24681690: - 0.00949320228714989 C0 - C1 + C178 >= 0.01
 R24681691: 0.0214209096249563 C0 + C1 + C179 >= 0.01
 R24681692: - 0.00895497531798643 C0 - C1 + C180 >= 0.01
 R24681693: 0.0105619404293371 C0 + C1 + C181 >= 0.01
 R24681694: - 0.00958955795173874 C0 - C1 + C182 >= 0.01
 R24681695: - 0.00723310660575855 C0 - C1 + C183 >= 0.01
 R24681696: 0.0659961564831121 C0 + C1 + C184 >= 0.01
 R24681697: 0.0142908156157717 C0 + C1 + C185 >= 0.01
 R24681698: 0.0150678780422761 C0 + C1 + C186 >= 0.01
 R24681699: 0.0127938898234361 C0 + C1 + C187 >= 0.01
 R24681700: 0.0237941709327634 C0 + C1 + C188 >= 0.01
 R24681701: 0.0139754268077539 C0 + C1 + C189 >= 0.01
 R24681702: 0.0118156203337628 C0 + C1 + C190 >= 0.01
 R24681703: 0.0189540356428854 C0 + C1 + C191 >= 0.01
 R24681704: 0.0126045503053872 C0 + C1 + C192 >= 0.01
 R24681705: 0.0135027111759758 C0 + C1 + C193 >= 0.01
 R24681706: 0.0124023950857048 C0 + C1 + C194 >= 0.01
 R24681707: 0.0111220943393682 C0 + C1 + C195 >= 0.01
 R24681708: 0.051858007148672 C0 + C1 + C196 >= 0.01
 R24681709: 0.0176353340179101 C0 + C1 + C197 >= 0.01
 R24681710: 0.0217785683074873 C0 + C1 + C198 >= 0.01
 R24681711: 0.0180491716887848 C0 + C1 + C199 >= 0.01
 R24681712: 0.0290324143621656 C0 + C1 + C200 >= 0.01
 R24681713: 0.0258878033304154 C0 + C1 + C201 >= 0.01
 R24681714: 0.0157754290531033 C0 + C1 + C202 >= 0.01
 R24681715: 0.0106024574517764 C0 + C1 + C203 >= 0.01
 R24681716: 0.0124112723728852 C0 + C1 + C204 >= 0.01
 R24681717: 0.0866033200109873 C0 + C1 + C205 >= 0.01
 R24681718: 0.016161676459783 C0 + C1 + C206 >= 0.01
 R24681719: 0.0126091770384296 C0 + C1 + C207 >= 0.01
 R24681720: - 0.00828498 C0 - C1 + C208 >= 0.01
 R24681721: - 0.00854197614308241 C0 - C1 + C209 >= 0.01
 R24681722: - 0.00701725804525469 C0 - C1 + C210 >= 0.01
 R24681723: 0.0268248781351494 C0 + C1 + C211 >= 0.01
 R24681724: 0.0112622030627623 C0 + C1 + C212 >= 0.01
 R24681725: 0.0180916070173044 C0 + C1 + C213 >= 0.01
 R24681726: 0.0124610584373373 C0 + C1 + C214 >= 0.01
 R24681727: 0.0150409413822016 C0 + C1 + C215 >= 0.01
 R24681728: 0.0159543549944214 C0 + C1 + C216 >= 0.01
 R24681729: 0.0130545487890247 C0 + C1 + C217 >= 0.01
 R24681730: 0.067459581881907 C0 + C1 + C218 >= 0.01
 R24681731: 0.0211729003480999 C0 + C1 + C219 >= 0.01
 R24681732: 0.0435719397127339 C0 + C1 + C220 >= 0.01
 R24681733: 0.0255075529240961 C0 + C1 + C221 >= 0.01
 R24681734: 0.127857426019825 C0 + C1 + C222 >= 0.01
 R24681735: 0.0144795980961413 C0 + C1 + C223 >= 0.01
 R24681736: 0.0162234905043551 C0 + C1 + C224 >= 0.01
 R24681737: 0.0257157474977591 C0 + C1 + C225 >= 0.01
 R24681738: 0.020123882864787 C0 + C1 + C226 >= 0.01
 R24681739: 0.0164907553751381 C0 + C1 + C227 >= 0.01
 R24681740: 0.0103853410061621 C0 + C1 + C228 >= 0.01
 R24681741: 0.0104861259172022 C0 + C1 + C229 >= 0.01
 R24681742: 0.0231017686971619 C0 + C1 + C230 >= 0.01
 R24681743: - 0.00859913582331097 C0 - C1 + C231 >= 0.01
 R24681744: 0.023005780709047 C0 + C1 + C232 >= 0.01
 R24681745: 0.0131429518198199 C0 + C1 + C233 >= 0.01
 R24681746: 0.0159433640224701 C0 + C1 + C234 >= 0.01
 R24681747: 0.0233114477941154 C0 + C1 + C235 >= 0.01
 R24681748: 0.0130065806039719 C0 + C1 + C236 >= 0.01
 R24681749: 0.0088005007388167 C0 + C1 + C237 >= 0.01
 R24681750: 0.0425995075249423 C0 + C1 + C238 >= 0.01
 R24681751: 0.0180725457579112 C0 + C1 + C239 >= 0.01
 R24681752: 0.0146570987105094 C0 + C1 + C240 >= 0.01
 R24681753: 0.0132840542359446 C0 + C1 + C241 >= 0.01
 R24681754: 0.0151727616655417 C0 + C1 + C242 >= 0.01
 R24681755: 0.0154276806638746 C0 + C1 + C243 >= 0.01
 R24681756: 0.00990852327861895 C0 + C1 + C244 >= 0.01
 R24681757: 0.014510775060173 C0 + C1 + C245 >= 0.01
 R24681758: 0.0307032554378734 C0 + C1 + C246 >= 0.01
 R24681759: 0.0218459478949118 C0 + C1 + C247 >= 0.01
 R24681760: 0.0175828863232268 C0 + C1 + C248 >= 0.01
 R24681761: 0.0346905124178901 C0 + C1 + C249 >= 0.01
 R24681762: 0.00813169693239264 C0 + C1 + C250 >= 0.01
 R24681763: 0.0149298251486551 C0 + C1 + C251 >= 0.01
 R24681764: 0.0137711417035635 C0 + C1 + C252 >= 0.01
 R24681765: 0.014581294093284 C0 + C1 + C253 >= 0.01
 R24681766: 0.0202073938842872 C0 + C1 + C254 >= 0.01
 R24681767: - 0.00935524143183286 C0 - C1 + C255 >= 0.01
 R24681768: 0.0112323204551943 C0 + C1 + C256 >= 0.01
 R24681769: 0.0170892815031231 C0 + C1 + C257 >= 0.01
 R24681770: 0.0168427115039671 C0 + C1 + C258 >= 0.01
 R24681771: 0.0130709833983723 C0 + C1 + C259 >= 0.01
 R24681772: 0.037557815355118 C0 + C1 + C260 >= 0.01
 R24681773: 0.0306759712461655 C0 + C1 + C261 >= 0.01
 R24681774: 0.0151057304440572 C0 + C1 + C262 >= 0.01
 R24681775: 0.0129201258307046 C0 + C1 + C263 >= 0.01
 R24681776: 0.0360376412351294 C0 + C1 + C264 >= 0.01
 R24681777: 0.0276376777892069 C0 + C1 + C265 >= 0.01
 R24681778: 0.0380790745486356 C0 + C1 + C266 >= 0.01
 R24681779: 0.0205996447631549 C0 + C1 + C267 >= 0.01
 R24681780: 0.0103318143043781 C0 + C1 + C268 >= 0.01
 R24681781: 0.013267124582491 C0 + C1 + C269 >= 0.01
 R24681782: 0.00416026587145337 C0 + C1 + C270 >= 0.01
 R24681783: 0.0228945796758115 C0 + C1 + C271 >= 0.01
 R24681784: 0.012947949995088 C0 + C1 + C272 >= 0.01
 R24681785: 0.0146713872306736 C0 + C1 + C273 >= 0.01
 R24681786: 0.0380331900269196 C0 + C1 + C274 >= 0.01
 R24681787: 0.0123305542252781 C0 + C1 + C275 >= 0.01
 R24681788: 0.0309754577895425 C0 + C1 + C276 >= 0.01
 R24681789: - 0.00830598647696983 C0 - C1 + C277 >= 0.01
 R24681790: 0.0295816730191338 C0 + C1 + C278 >= 0.01
 R24681791: 0.00755038611553095 C0 + C1 + C279 >= 0.01
 R24681792: 0.0411892711025264 C0 + C1 + C280 >= 0.01
 R24681793: 0.0103647051953249 C0 + C1 + C281 >= 0.01
 R24681794: 0.0156549895759479 C0 + C1 + C282 >= 0.01
 R24681795: 0.0178562375406731 C0 + C1 + C283 >= 0.01
 R24681796: 0.0175118011944339 C0 + C1 + C284 >= 0.01
 R24681797: 0.0362668227553783 C0 + C1 + C285 >= 0.01
 R24681798: 0.0127274041113236 C0 + C1 + C286 >= 0.01
 R24681799: 0.0176638406213706 C0 + C1 + C287 >= 0.01
Bounds
End
